# Created by Octave 4.2.2, Sun Jul 05 23:19:52 2020 IST <mehul@mehul-HP-Pavilion-Laptop-15-cs2xxx>
# name: freqMap
# type: scalar struct
# ndims: 2
 1 1
# length: 5808
# name: return
# type: scalar
130


# name: path
# type: scalar
99


# name: deliv
# type: scalar
108


# name: to
# type: scalar
1550


# name: emailaddr
# type: scalar
1046


# name: receiv
# type: scalar
641


# name: from
# type: scalar
1038


# name: localhost
# type: scalar
221


# name: number
# type: scalar
12527


# name: by
# type: scalar
700


# name: phobo
# type: scalar
94


# name: lab
# type: scalar
72


# name: netnoteinc
# type: scalar
109


# name: com
# type: scalar
380


# name: postfix
# type: scalar
140


# name: with
# type: scalar
782


# name: esmtp
# type: scalar
305


# name: id
# type: scalar
595


# name: numbercnumb
# type: scalar
14


# name: for
# type: scalar
878


# name: wed
# type: scalar
316


# name: aug
# type: scalar
424


# name: edt
# type: scalar
95


# name: imap
# type: scalar
55


# name: fetchmail
# type: scalar
56


# name: singl
# type: scalar
68


# name: drop
# type: scalar
73


# name: ist
# type: scalar
105


# name: listman
# type: scalar
60


# name: spamassassin
# type: scalar
99


# name: taint
# type: scalar
97


# name: org
# type: scalar
360


# name: dogma
# type: scalar
86


# name: slashnul
# type: scalar
86


# name: gnumberlcxvznumb
# type: scalar
1


# name: localdomain
# type: scalar
20


# name: redhat
# type: scalar
58


# name: fnumberanumbereanumb
# type: scalar
1


# name: int
# type: scalar
60


# name: mxnumber
# type: scalar
84


# name: corp
# type: scalar
48


# name: numberdnumberfnumb
# type: scalar
2


# name: gnumberlcuqxnumb
# type: scalar
1


# name: smtp
# type: scalar
133


# name: gnumberlcuqynumb
# type: scalar
1


# name: ratre
# type: scalar
2


# name: psu
# type: scalar
10


# name: ac
# type: scalar
55


# name: th
# type: scalar
7


# name: gnumberlcgnlnumb
# type: scalar
1


# name: delta
# type: scalar
3


# name: cs
# type: scalar
12


# name: mu
# type: scalar
2


# name: oz
# type: scalar
18


# name: au
# type: scalar
9


# name: coe
# type: scalar
1


# name: gnumberlcuilnumb
# type: scalar
1


# name: ict
# type: scalar
2


# name: munnari
# type: scalar
1


# name: gnumberlcunumberwnumb
# type: scalar
1


# name: robert
# type: scalar
19


# name: elz
# type: scalar
18


# name: chri
# type: scalar
42


# name: garrigu
# type: scalar
35


# name: cc
# type: scalar
38


# name: subject
# type: scalar
146


# name: re
# type: scalar
90


# name: new
# type: scalar
101


# name: sequenc
# type: scalar
93


# name: window
# type: scalar
63


# name: in
# type: scalar
533


# name: repli
# type: scalar
83


# name: refer
# type: scalar
40


# name: mime
# type: scalar
94


# name: version
# type: scalar
202


# name: content
# type: scalar
172


# name: type
# type: scalar
108


# name: text
# type: scalar
94


# name: plain
# type: scalar
59


# name: charset
# type: scalar
66


# name: us
# type: scalar
282


# name: ascii
# type: scalar
39


# name: messag
# type: scalar
169


# name: x
# type: scalar
383


# name: loop
# type: scalar
14


# name: sender
# type: scalar
81


# name: error
# type: scalar
81


# name: beenther
# type: scalar
54


# name: mailman
# type: scalar
56


# name: preced
# type: scalar
55


# name: bulk
# type: scalar
58


# name: list
# type: scalar
272


# name: help
# type: scalar
66


# name: post
# type: scalar
34


# name: subscrib
# type: scalar
35


# name: discuss
# type: scalar
16


# name: exmh
# type: scalar
109


# name: develop
# type: scalar
13


# name: unsubscrib
# type: scalar
28


# name: archiv
# type: scalar
16


# name: date
# type: scalar
134


# name: tue
# type: scalar
66


# name: i
# type: scalar
606


# name: m
# type: scalar
61


# name: hope
# type: scalar
7


# name: that
# type: scalar
368


# name: all
# type: scalar
182


# name: peopl
# type: scalar
93


# name: no
# type: scalar
122


# name: addit
# type: scalar
11


# name: will
# type: scalar
180


# name: notic
# type: scalar
11


# name: ar
# type: scalar
240


# name: pure
# type: scalar
5


# name: cosmet
# type: scalar
2


# name: chang
# type: scalar
49


# name: well
# type: scalar
35


# name: first
# type: scalar
50


# name: when
# type: scalar
59


# name: the
# type: scalar
1491


# name: latest
# type: scalar
4


# name: on
# type: scalar
505


# name: your
# type: scalar
429


# name: start
# type: scalar
38


# name: get
# type: scalar
122


# name: can
# type: scalar
174


# name: t
# type: scalar
163


# name: read
# type: scalar
36


# name: flist
# type: scalar
6


# name: totalcount
# type: scalar
6


# name: unseen
# type: scalar
38


# name: such
# type: scalar
19


# name: element
# type: scalar
3


# name: arrai
# type: scalar
4


# name: while
# type: scalar
25


# name: execut
# type: scalar
8


# name: if
# type: scalar
205


# name: dollarflist
# type: scalar
3


# name: dollarmhprofil
# type: scalar
3


# name: flaginn
# type: scalar
6


# name: spool
# type: scalar
3


# name: iconspool
# type: scalar
3


# name: labelup
# type: scalar
3


# name: els
# type: scalar
15


# name: down
# type: scalar
31


# name: icondown
# type: scalar
3


# name: labeldown
# type: scalar
3


# name: procedur
# type: scalar
55


# name: flag
# type: scalar
6


# name: msgseen
# type: scalar
9


# name: line
# type: scalar
104


# name: invok
# type: scalar
109


# name: within
# type: scalar
100


# name: dollarmsgid
# type: scalar
14


# name: msgshow
# type: scalar
4


# name: msgchang
# type: scalar
6


# name: show
# type: scalar
27


# name: time
# type: scalar
97


# name: dollarshow
# type: scalar
4


# name: msg
# type: scalar
16


# name: dollarmsg
# type: scalar
10


# name: cur
# type: scalar
5


# name: eval
# type: scalar
10


# name: bodi
# type: scalar
44


# name: dollarmsgshowproc
# type: scalar
4


# name: folderchang
# type: scalar
6


# name: inbox
# type: scalar
10


# name: dollarfold
# type: scalar
2


# name: folder
# type: scalar
33


# name: dollarexmh
# type: scalar
2


# name: after
# type: scalar
46


# name: script
# type: scalar
2


# name: which
# type: scalar
91


# name: is
# type: scalar
454


# name: probabl
# type: scalar
11


# name: relat
# type: scalar
7


# name: my
# type: scalar
123


# name: not
# type: scalar
182


# name: have
# type: scalar
279


# name: an
# type: scalar
109


# name: anywher
# type: scalar
6


# name: certainli
# type: scalar
6


# name: of
# type: scalar
678


# name: outstand
# type: scalar
2


# name: mail
# type: scalar
233


# name: befor
# type: scalar
28


# name: tri
# type: scalar
13


# name: thi
# type: scalar
344


# name: second
# type: scalar
11


# name: ve
# type: scalar
43


# name: been
# type: scalar
48


# name: a
# type: scalar
938


# name: kei
# type: scalar
8


# name: bind
# type: scalar
9


# name: wa
# type: scalar
98


# name: markunseen
# type: scalar
4


# name: doesn
# type: scalar
18


# name: seem
# type: scalar
19


# name: exist
# type: scalar
15


# name: ani
# type: scalar
88


# name: more
# type: scalar
102


# name: and
# type: scalar
815


# name: sure
# type: scalar
31


# name: what
# type: scalar
94


# name: should
# type: scalar
40


# name: replac
# type: scalar
6


# name: there
# type: scalar
104


# name: s
# type: scalar
178


# name: obvious
# type: scalar
7


# name: wai
# type: scalar
40


# name: as
# type: scalar
193


# name: menu
# type: scalar
17


# name: doe
# type: scalar
41


# name: mark
# type: scalar
18


# name: entri
# type: scalar
8


# name: still
# type: scalar
25


# name: want
# type: scalar
60


# name: function
# type: scalar
28


# name: those
# type: scalar
34


# name: who
# type: scalar
36


# name: other
# type: scalar
72


# name: defin
# type: scalar
8


# name: widen
# type: scalar
3


# name: displai
# type: scalar
14


# name: chanc
# type: scalar
12


# name: lengthen
# type: scalar
3


# name: instead
# type: scalar
11


# name: like
# type: scalar
88


# name: stuff
# type: scalar
7


# name: nice
# type: scalar
15


# name: column
# type: scalar
6


# name: fit
# type: scalar
12


# name: better
# type: scalar
25


# name: detach
# type: scalar
3


# name: main
# type: scalar
5


# name: take
# type: scalar
57


# name: up
# type: scalar
85


# name: full
# type: scalar
20


# name: screen
# type: scalar
3


# name: top
# type: scalar
13


# name: bottom
# type: scalar
9


# name: but
# type: scalar
133


# name: less
# type: scalar
11


# name: than
# type: scalar
65


# name: half
# type: scalar
12


# name: width
# type: scalar
4


# name: etc
# type: scalar
28


# name: space
# type: scalar
3


# name: long
# type: scalar
25


# name: thei
# type: scalar
103


# name: remain
# type: scalar
11


# name: onc
# type: scalar
19


# name: narrow
# type: scalar
3


# name: best
# type: scalar
19


# name: would
# type: scalar
68


# name: be
# type: scalar
426


# name: could
# type: scalar
42


# name: order
# type: scalar
130


# name: some
# type: scalar
60


# name: prefer
# type: scalar
14


# name: then
# type: scalar
64


# name: didn
# type: scalar
29


# name: just
# type: scalar
114


# name: fall
# type: scalar
9


# name: off
# type: scalar
30


# name: shown
# type: scalar
8


# name: d
# type: scalar
62


# name: also
# type: scalar
84


# name: it
# type: scalar
425


# name: had
# type: scalar
41


# name: unusu
# type: scalar
3


# name: background
# type: scalar
34


# name: colour
# type: scalar
8


# name: constant
# type: scalar
6


# name: run
# type: scalar
19


# name: black
# type: scalar
7


# name: root
# type: scalar
12


# name: border
# type: scalar
5


# name: or
# type: scalar
232


# name: decor
# type: scalar
3


# name: made
# type: scalar
27


# name: sticki
# type: scalar
6


# name: appear
# type: scalar
20


# name: their
# type: scalar
50


# name: count
# type: scalar
12


# name: written
# type: scalar
5


# name: into
# type: scalar
36


# name: becaus
# type: scalar
26


# name: small
# type: scalar
14


# name: follow
# type: scalar
35


# name: me
# type: scalar
67


# name: around
# type: scalar
13


# name: do
# type: scalar
116


# name: see
# type: scalar
56


# name: need
# type: scalar
66


# name: process
# type: scalar
38


# name: find
# type: scalar
37


# name: tend
# type: scalar
8


# name: bunch
# type: scalar
3


# name: onli
# type: scalar
98


# name: ever
# type: scalar
32


# name: occur
# type: scalar
9


# name: forgotten
# type: scalar
8


# name: creat
# type: scalar
15


# name: so
# type: scalar
120


# name: alwai
# type: scalar
17


# name: never
# type: scalar
26


# name: occor
# type: scalar
3


# name: visit
# type: scalar
38


# name: current
# type: scalar
23


# name: keep
# type: scalar
14


# name: size
# type: scalar
19


# name: somewhat
# type: scalar
3


# name: manag
# type: scalar
18


# name: product
# type: scalar
41


# name: quit
# type: scalar
10


# name: often
# type: scalar
7


# name: rememb
# type: scalar
16


# name: particular
# type: scalar
3


# name: name
# type: scalar
69


# name: give
# type: scalar
27


# name: handl
# type: scalar
8


# name: pack
# type: scalar
5


# name: sort
# type: scalar
4


# name: haven
# type: scalar
11


# name: updat
# type: scalar
10


# name: now
# type: scalar
89


# name: next
# type: scalar
21


# name: sinc
# type: scalar
20


# name: bar
# type: scalar
17


# name: search
# type: scalar
11


# name: contain
# type: scalar
18


# name: urgent
# type: scalar
10


# name: happen
# type: scalar
16


# name: previous
# type: scalar
5


# name: done
# type: scalar
9


# name: pick
# type: scalar
47


# name: interfac
# type: scalar
4


# name: clumsi
# type: scalar
3


# name: actual
# type: scalar
12


# name: you
# type: scalar
735


# name: try
# type: scalar
24


# name: enter
# type: scalar
9


# name: box
# type: scalar
36


# name: rang
# type: scalar
10


# name: n
# type: scalar
22


# name: attribut
# type: scalar
4


# name: at
# type: scalar
171


# name: syntax
# type: scalar
4


# name: express
# type: scalar
20


# name: hit
# type: scalar
12


# name: expr
# type: scalar
4


# name: dollarminlineno
# type: scalar
8


# name: dollarminmsgid
# type: scalar
8


# name: dollarmaxlineno
# type: scalar
4


# name: dollarmaxmsgid
# type: scalar
2


# name: ftoc
# type: scalar
31


# name: findmsg
# type: scalar
16


# name: pickmsg
# type: scalar
8


# name: dollarpick
# type: scalar
8


# name: addtosel
# type: scalar
4


# name: pickinn
# type: scalar
12


# name: exec
# type: scalar
4


# name: mercuri
# type: scalar
4


# name: uplevel
# type: scalar
16


# name: dollarcmd
# type: scalar
12


# name: busycursorinn
# type: scalar
8


# name: dollarwidget
# type: scalar
4


# name: busycursorhack
# type: scalar
12


# name: dollararg
# type: scalar
20


# name: cursor
# type: scalar
8


# name: arm
# type: scalar
5


# name: switch
# type: scalar
4


# name: dollarbusi
# type: scalar
4


# name: style
# type: scalar
12


# name: icon
# type: scalar
6


# name: busyicon
# type: scalar
4


# name: cursoral
# type: scalar
4


# name: busycursor
# type: scalar
4


# name: default
# type: scalar
15


# name: busi
# type: scalar
70


# name: dollarw
# type: scalar
4


# name: tkbuttonup
# type: scalar
8


# name: command
# type: scalar
6


# name: bound
# type: scalar
12


# name: event
# type: scalar
75


# name: ha
# type: scalar
99


# name: ag
# type: scalar
48


# name: did
# type: scalar
18


# name: last
# type: scalar
14


# name: though
# type: scalar
25


# name: ad
# type: scalar
192


# name: easi
# type: scalar
32


# name: know
# type: scalar
47


# name: differ
# type: scalar
16


# name: look
# type: scalar
94


# name: someth
# type: scalar
25


# name: sai
# type: scalar
40


# name: similar
# type: scalar
6


# name: color
# type: scalar
20


# name: briefli
# type: scalar
3


# name: week
# type: scalar
46


# name: ago
# type: scalar
11


# name: make
# type: scalar
95


# name: littl
# type: scalar
20


# name: brighter
# type: scalar
3


# name: stand
# type: scalar
6


# name: out
# type: scalar
124


# name: fraction
# type: scalar
6


# name: mayb
# type: scalar
9


# name: appar
# type: scalar
3


# name: mani
# type: scalar
35


# name: veri
# type: scalar
47


# name: font
# type: scalar
19


# name: everywher
# type: scalar
4


# name: isn
# type: scalar
7


# name: wide
# type: scalar
5


# name: kre
# type: scalar
2


# name: worker
# type: scalar
12


# name: httpaddr
# type: scalar
218


# name: denumberenumbercnumb
# type: scalar
1


# name: gnumberlffwznumb
# type: scalar
1


# name: numberanumberbnumberdnumb
# type: scalar
1


# name: numberbnumberbenumb
# type: scalar
1


# name: gnumberlffminumb
# type: scalar
1


# name: gnumberlffmynumb
# type: scalar
1


# name: austin
# type: scalar
24


# name: jump
# type: scalar
17


# name: vircio
# type: scalar
40


# name: gnumberlfnumberxlnumb
# type: scalar
1


# name: qmail
# type: scalar
49


# name: uid
# type: scalar
8


# name: scanner
# type: scalar
8


# name: uvscan
# type: scalar
8


# name: vnumber
# type: scalar
42


# name: clean
# type: scalar
10


# name: sec
# type: scalar
9


# name: deepeddi
# type: scalar
16


# name: envelop
# type: scalar
25


# name: ldap
# type: scalar
16


# name: network
# type: scalar
41


# name: helo
# type: scalar
21


# name: mailer
# type: scalar
41


# name: nmh
# type: scalar
11


# name: url
# type: scalar
22


# name: imag
# type: scalar
29


# name: multipart
# type: scalar
14


# name: sign
# type: scalar
27


# name: boundari
# type: scalar
13


# name: numberp
# type: scalar
38


# name: micalg
# type: scalar
9


# name: pgp
# type: scalar
46


# name: shanumb
# type: scalar
9


# name: protocol
# type: scalar
9


# name: applic
# type: scalar
29


# name: signatur
# type: scalar
50


# name: transfer
# type: scalar
64


# name: encod
# type: scalar
57


# name: numberbit
# type: scalar
43


# name: deliveri
# type: scalar
25


# name: agent
# type: scalar
28


# name: tmda
# type: scalar
14


# name: said
# type: scalar
10


# name: mh
# type: scalar
10


# name: pseq
# type: scalar
13


# name: suspect
# type: scalar
2


# name: everybod
# type: scalar
1


# name: y
# type: scalar
10


# name: big
# type: scalar
17


# name: might
# type: scalar
20


# name: add
# type: scalar
15


# name: hide
# type: scalar
4


# name: intend
# type: scalar
2


# name: effect
# type: scalar
30


# name: till
# type: scalar
7


# name: stop
# type: scalar
11


# name: restart
# type: scalar
4


# name: save
# type: scalar
27


# name: wasn
# type: scalar
5


# name: point
# type: scalar
10


# name: work
# type: scalar
86


# name: fine
# type: scalar
7


# name: ll
# type: scalar
45


# name: check
# type: scalar
44


# name: why
# type: scalar
22


# name: congress
# type: scalar
8


# name: suit
# type: scalar
10


# name: tx
# type: scalar
9


# name: world
# type: scalar
21


# name: war
# type: scalar
12


# name: iii
# type: scalar
9


# name: wrong
# type: scalar
13


# name: doer
# type: scalar
16


# name: vs
# type: scalar
8


# name: evil
# type: scalar
8


# name: begin
# type: scalar
12


# name: gnupg
# type: scalar
9


# name: gnu
# type: scalar
10


# name: linux
# type: scalar
118


# name: comment
# type: scalar
17


# name: idnumberdbqenumberynumbergknumberbnumberhnumberrnumberiuirasiyajnumberzejmnumberbnumbertiqddnumbermqunumberlbapzzpasgcccjtl
# type: scalar
1


# name: bdfbnumberanumberwkmtagwylfnumberxo
# type: scalar
1


# name: wcnumberi
# type: scalar
1


# name: end
# type: scalar
27


# name: gnumberlfjuznumb
# type: scalar
1


# name: dnumberecnumberecnumb
# type: scalar
1


# name: ecnumbercnumberfnumbereb
# type: scalar
1


# name: gnumberlfhjqnumb
# type: scalar
1


# name: gnumberlfhiynumb
# type: scalar
1


# name: gnumberlfnumberulnumb
# type: scalar
1


# name: hmm
# type: scalar
7


# name: were
# type: scalar
20


# name: don
# type: scalar
35


# name: think
# type: scalar
31


# name: seen
# type: scalar
10


# name: guess
# type: scalar
9


# name: recal
# type: scalar
1


# name: vari
# type: scalar
4


# name: person
# type: scalar
42


# name: won
# type: scalar
14


# name: except
# type: scalar
5


# name: configur
# type: scalar
5


# name: move
# type: scalar
15


# name: institut
# type: scalar
2


# name: osmosi
# type: scalar
1


# name: sel
# type: scalar
1


# name: purpos
# type: scalar
10


# name: kind
# type: scalar
12


# name: doubt
# type: scalar
7


# name: pre
# type: scalar
6


# name: built
# type: scalar
5


# name: go
# type: scalar
47


# name: gener
# type: scalar
15


# name: even
# type: scalar
31


# name: fortun
# type: scalar
18


# name: profil
# type: scalar
8


# name: whether
# type: scalar
8


# name: os
# type: scalar
3


# name: bother
# type: scalar
7


# name: either
# type: scalar
7


# name: btw
# type: scalar
3


# name: kinda
# type: scalar
1


# name: amus
# type: scalar
1


# name: short
# type: scalar
4


# name: watch
# type: scalar
5


# name: bug
# type: scalar
1


# name: idnumberdbqenumberynumberknumberbnumberhnumberrnumberiuirat
# type: scalar
1


# name: rajnumberhuatfeblhluu
# type: scalar
1


# name: vhfcnumbergwynumberx
# type: scalar
1


# name: yywcghnumberxf
# type: scalar
1


# name: onumb
# type: scalar
1


# name: xfpsiqbznumberhkffbmtydnumberk
# type: scalar
1


# name: gnumberlfknumberznumb
# type: scalar
1


# name: enumberfnumberfnumbera
# type: scalar
1


# name: numberfnumberbc
# type: scalar
1


# name: gnumberlfhnrnumb
# type: scalar
1


# name: gnumberlfhnynumb
# type: scalar
1


# name: gnumberlfnumberqlnumb
# type: scalar
1


# name: ouch
# type: scalar
2


# name: right
# type: scalar
32


# name: e
# type: scalar
103


# name: dollarmaxm
# type: scalar
1


# name: gid
# type: scalar
2


# name: differen
# type: scalar
1


# name: ce
# type: scalar
17


# name: li
# type: scalar
4


# name: idnumberdbqenumberynumberzknumberbnumberhnumberrnumberiuiraniqajnumberxpnumberlnumberdhnumberpmewnptnumbercnumb
# type: scalar
1


# name: lbbuelqcdhnumberav
# type: scalar
1


# name: heczndjhllrnagnumbersnumberftpdwnumb
# type: scalar
1


# name: coew
# type: scalar
1


# name: numberfnumbercnumb
# type: scalar
2


# name: gnumberlfnsznumb
# type: scalar
1


# name: numberednumb
# type: scalar
1


# name: dnumbercnumberefd
# type: scalar
1


# name: gnumberlfnnumbernnumb
# type: scalar
1


# name: gnumberlfnnumberynumb
# type: scalar
1


# name: ture
# type: scalar
4


# name: polic
# type: scalar
6


# name: vt
# type: scalar
5


# name: edu
# type: scalar
5


# name: gnumberlfnumberflnumb
# type: scalar
1


# name: gnumberlfmssnumb
# type: scalar
1


# name: dev
# type: scalar
2


# name: face
# type: scalar
10


# name: viewer
# type: scalar
1


# name: ftp
# type: scalar
1


# name: indiana
# type: scalar
1


# name: pub
# type: scalar
4


# name: index
# type: scalar
21


# name: html
# type: scalar
24


# name: decod
# type: scalar
3


# name: pictur
# type: scalar
29


# name: anumberhnumberjxitnumberonumbertv
# type: scalar
1


# name: kgl
# type: scalar
1


# name: q
# type: scalar
18


# name: numberv
# type: scalar
1


# name: gtnliutz
# type: scalar
1


# name: hkpebuu
# type: scalar
1


# name: j
# type: scalar
6


# name: iox
# type: scalar
1


# name: p
# type: scalar
20


# name: tnumberlrr
# type: scalar
1


# name: bad
# type: scalar
8


# name: previou
# type: scalar
2


# name: far
# type: scalar
5


# name: awai
# type: scalar
6


# name: valdi
# type: scalar
1


# name: kletniek
# type: scalar
1


# name: comput
# type: scalar
20


# name: system
# type: scalar
27


# name: senior
# type: scalar
1


# name: engin
# type: scalar
4


# name: virginia
# type: scalar
1


# name: tech
# type: scalar
2


# name: idnumberdbqenumberynumberazccnumberlwbttnumberarap
# type: scalar
1


# name: tajnumbergyhfoiqyvwynumbercpyssxdmqnumb
# type: scalar
1


# name: onumbergcfwoi
# type: scalar
1


# name: numberybnbynumberrpenumberwnumberuwhhnumberakcnumb
# type: scalar
1


# name: rdnumbert
# type: scalar
1


# name: numberdnumberenumbercnumb
# type: scalar
1


# name: gnumberlffnumberznumb
# type: scalar
1


# name: anumberfnumberfnumb
# type: scalar
1


# name: dnumberebec
# type: scalar
1


# name: gnumberlfeijnumb
# type: scalar
1


# name: gnumberlfehynumb
# type: scalar
1


# name: gnumberlfqllnumb
# type: scalar
1


# name: fix
# type: scalar
11


# name: cv
# type: scalar
4


# name: how
# type: scalar
62


# name: miss
# type: scalar
6


# name: app
# type: scalar
4


# name: thought
# type: scalar
4


# name: about
# type: scalar
71


# name: approxim
# type: scalar
5


# name: side
# type: scalar
21


# name: left
# type: scalar
5


# name: howev
# type: scalar
13


# name: each
# type: scalar
36


# name: funni
# type: scalar
3


# name: same
# type: scalar
17


# name: hmmm
# type: scalar
3


# name: let
# type: scalar
18


# name: dynam
# type: scalar
5


# name: highlight
# type: scalar
1


# name: got
# type: scalar
17


# name: figur
# type: scalar
7


# name: yet
# type: scalar
4


# name: dollarmax
# type: scalar
1


# name: ms
# type: scalar
3


# name: en
# type: scalar
2


# name: mai
# type: scalar
83


# name: fault
# type: scalar
3


# name: l
# type: scalar
8


# name: reason
# type: scalar
10


# name: experi
# type: scalar
14


# name: idnumberdbqenumberynumberrnumberknumberbnumberhnumberrnumberiuiravjfajodzlxmnumberivmweugjnumberdg
# type: scalar
1


# name: ozryypsmacfzkynumb
# type: scalar
1


# name: mnumberileocnumberomyxicv
# type: scalar
1


# name: ifinpxi
# type: scalar
1


# name: numberrdb
# type: scalar
1


# name: numberbnumbercnumb
# type: scalar
2


# name: gnumberlflwznumb
# type: scalar
1


# name: numberednumbercnumberfnumberfnumb
# type: scalar
1


# name: bnumberbnumberfnumberf
# type: scalar
1


# name: gnumberlflahnumb
# type: scalar
1


# name: gnumberlflaynumb
# type: scalar
1


# name: gnumberlfxelnumb
# type: scalar
1


# name: okai
# type: scalar
1


# name: idnumberdbqenumberynumberyuknumberbnumberhnumberrnumberiuiratwwakcmaahtzemkimnumberlbnumbervodnumberynumberinumberuhqccd
# type: scalar
1


# name: ib
# type: scalar
1


# name: ekmitiujnumberwysnumbersnumberaecqqfq
# type: scalar
1


# name: lwnumber
# type: scalar
1


# name: numberanumberanumbercnumb
# type: scalar
1


# name: gnumberlftdznumb
# type: scalar
1


# name: adnumberfdnumb
# type: scalar
1


# name: bnumbercnumberfnumbera
# type: scalar
1


# name: gnumberlfspunumb
# type: scalar
1


# name: gnumberlfsoynumb
# type: scalar
1


# name: gnumberlfeslnumb
# type: scalar
1


# name: reproduc
# type: scalar
1


# name: idnumberdbqenumberynumberfgknumberbnumberhnumberrnumberiuirainumberajnumbernvqmdxzgenumb
# type: scalar
1


# name: ymnumberqmunumberunumbertnvvfacccxpb
# type: scalar
1


# name: onumberqendnumberbgamnumberxzzqt
# type: scalar
1


# name: zuzyi
# type: scalar
1


# name: ntpe
# type: scalar
1


# name: numberdnumberbnumbercnumb
# type: scalar
1


# name: gnumberlgnumbersznumb
# type: scalar
1


# name: enumbercnumberff
# type: scalar
1


# name: bdnumber
# type: scalar
1


# name: gnumberlgnumberknumb
# type: scalar
1


# name: gnumberlgnumberjynumb
# type: scalar
1


# name: gnumberlflnlnumb
# type: scalar
1


# name: everyb
# type: scalar
1


# name: od
# type: scalar
1


# name: tha
# type: scalar
1


# name: ah
# type: scalar
1


# name: user
# type: scalar
112


# name: field
# type: scalar
4


# name: variabl
# type: scalar
2


# name: unless
# type: scalar
4


# name: press
# type: scalar
2


# name: mere
# type: scalar
3


# name: click
# type: scalar
62


# name: elsewher
# type: scalar
1


# name: noth
# type: scalar
12


# name: idnumberdbqenumberynumberllknumberbnumberhnumberrnumberiuirannumberuajnumberqexrmznumberbisp
# type: scalar
1


# name: apmknwnumberctmweaeaceptok
# type: scalar
1


# name: mjopacnumberykcdhawrnumberbjpostk
# type: scalar
1


# name: umnumbert
# type: scalar
1


# name: thu
# type: scalar
94


# name: numberenumberanumbercnumb
# type: scalar
1


# name: gnumbermnumberirznumb
# type: scalar
1


# name: fnumberfnumberdnumb
# type: scalar
1


# name: numberanumberanumbereanumberb
# type: scalar
1


# name: gnumberlkamtnumb
# type: scalar
1


# name: gnumberlkamynumb
# type: scalar
1


# name: blackcomb
# type: scalar
2


# name: panasa
# type: scalar
6


# name: gwnumber
# type: scalar
3


# name: gnumberlklwlnumb
# type: scalar
1


# name: medlicott
# type: scalar
1


# name: qaanumb
# type: scalar
16


# name: brent
# type: scalar
2


# name: welch
# type: scalar
2


# name: rnumberunrmlnumb
# type: scalar
1


# name: numberegli
# type: scalar
1


# name: numberb
# type: scalar
42


# name: ilwsr
# type: scalar
1


# name: jbc
# type: scalar
1


# name: gjz
# type: scalar
1


# name: rrgqnumber
# type: scalar
1


# name: f
# type: scalar
14


# name: ydhk
# type: scalar
1


# name: jpnumberdwqw
# type: scalar
1


# name: iwrcvdollarnumb
# type: scalar
1


# name: dollarnumb
# type: scalar
266


# name: set
# type: scalar
17


# name: mhprofil
# type: scalar
1


# name: code
# type: scalar
21


# name: softwar
# type: scalar
33


# name: architect
# type: scalar
1


# name: inc
# type: scalar
9


# name: pioneer
# type: scalar
1


# name: most
# type: scalar
43


# name: scalabl
# type: scalar
1


# name: agil
# type: scalar
1


# name: storag
# type: scalar
1


# name: www
# type: scalar
24


# name: numbercnumbercnumb
# type: scalar
2


# name: gnumbermnumberkxznumb
# type: scalar
1


# name: fnumber
# type: scalar
620


# name: bnumberdenumbereanumberb
# type: scalar
1


# name: gnumberlklnumberbnumb
# type: scalar
1


# name: gnumberlklnumberynumb
# type: scalar
1


# name: banirh
# type: scalar
3


# name: adsl
# type: scalar
1


# name: javier
# type: scalar
1


# name: quezada
# type: scalar
1


# name: prodigi
# type: scalar
1


# name: net
# type: scalar
170


# name: mx
# type: scalar
1


# name: gnumberlkwclnumb
# type: scalar
1


# name: gnumberlkkqfnumb
# type: scalar
1


# name: insert
# type: scalar
4


# name: ulis
# type: scalar
2


# name: ponc
# type: scalar
1


# name: hi
# type: scalar
31


# name: combin
# type: scalar
11


# name: sent
# type: scalar
19


# name: regard
# type: scalar
10


# name: gnumbermnumbershznumb
# type: scalar
1


# name: benumberdnumberanumb
# type: scalar
1


# name: numberddfnumbereanumberf
# type: scalar
1


# name: gnumberllognumb
# type: scalar
1


# name: gnumberllogynumb
# type: scalar
1


# name: gnumberllailnumb
# type: scalar
1


# name: until
# type: scalar
18


# name: patch
# type: scalar
2


# name: hardcod
# type: scalar
2


# name: thing
# type: scalar
20


# name: these
# type: scalar
51


# name: alreadi
# type: scalar
16


# name: avail
# type: scalar
28


# name: global
# type: scalar
4


# name: valu
# type: scalar
17


# name: part
# type: scalar
24


# name: anywai
# type: scalar
10


# name: perform
# type: scalar
5


# name: problem
# type: scalar
19


# name: repeatedli
# type: scalar
1


# name: file
# type: scalar
24


# name: idnumberdbqenumberzauvknumberbnumberhnumberrnumberiuiragvnumberajnumberxaodnumberjpdbijxxgnumberzpgqeqginumberwgcfqpvm
# type: scalar
1


# name: jybaonumbernsgznumberunumberekrkgcnumberyym
# type: scalar
1


# name: rdnumberf
# type: scalar
1


# name: lugh
# type: scalar
212


# name: tuatha
# type: scalar
158


# name: gnumberlcppznumb
# type: scalar
1


# name: naanumb
# type: scalar
6


# name: nuvotem
# type: scalar
8


# name: authent
# type: scalar
42


# name: warn
# type: scalar
43


# name: host
# type: scalar
53


# name: claim
# type: scalar
44


# name: declan
# type: scalar
9


# name: gnumberldpqhrnumb
# type: scalar
1


# name: gnumberlcsnumbergnumb
# type: scalar
1


# name: submit
# type: scalar
9


# name: gnumberlcsnumberklnumb
# type: scalar
1


# name: gradi
# type: scalar
1


# name: irish
# type: scalar
101

